
Gurobi 7.5.2 (linux64) logging started Sat Jun 23 16:25:58 2018

Changed value of parameter LogFile to result/ilp/simNo_1-n_100-m_40-s_7-minVAF_0.05-cov_2000-k_1-fn_0.25-fp_0.0001-na_0.15.ILP.gurobiSolverLog
   Prev: gurobi.log  Default: 
Changed value of parameter TimeLimit to 86400.0
   Prev: 1e+100  Min: 0.0  Max: 1e+100  Default: 1e+100
Optimize a model with 1265601 rows, 330440 columns and 3489120 nonzeros
Variable types: 0 continuous, 330440 integer (330440 binary)
Coefficient statistics:
  Matrix range     [5e-04, 4e+00]
  Objective range  [1e+00, 2e+01]
  Bounds range     [1e+00, 1e+00]
  RHS range        [5e-02, 2e+00]
Found heuristic solution: objective -13463.12081
Presolve removed 393360 rows and 226376 columns (presolve time = 6s) ...
Presolve removed 393990 rows and 226376 columns (presolve time = 10s) ...
Presolve removed 394512 rows and 226376 columns (presolve time = 15s) ...
Presolve removed 394512 rows and 226376 columns (presolve time = 20s) ...
Presolve removed 394512 rows and 226376 columns (presolve time = 28s) ...
Presolve removed 394512 rows and 226376 columns
Presolve time: 29.78s
Presolved: 871089 rows, 104064 columns, 2425316 nonzeros
Variable types: 0 continuous, 104064 integer (104064 binary)
Presolved: 104064 rows, 975153 columns, 2529380 nonzeros

Presolve removed 104064 rows and 975153 columns

Root simplex log...

Iteration    Objective       Primal Inf.    Dual Inf.      Time
       0    2.4197247e+01   0.000000e+00   8.898200e+04     38s
   10206   -1.9816245e+02   0.000000e+00   1.967509e+05     40s
   21126   -2.3602034e+02   0.000000e+00   2.278824e+05     45s
   31500   -2.6912385e+02   0.000000e+00   4.787611e+05     50s
   41874   -2.8833044e+02   0.000000e+00   1.242785e+05     55s
   52794   -3.0731422e+02   0.000000e+00   3.174264e+06     60s
   62076   -3.2179010e+02   0.000000e+00   1.044482e+05     65s
   70266   -3.3534999e+02   0.000000e+00   7.625851e+05     70s
   79548   -3.5146059e+02   0.000000e+00   6.348700e+05     75s
   88284   -3.6188414e+02   0.000000e+00   1.939650e+05     80s
   95382   -3.6981820e+02   0.000000e+00   2.139446e+04     85s
  101353   -3.8048891e+02   0.000000e+00   0.000000e+00     90s
  101353   -3.8048891e+02   0.000000e+00   0.000000e+00     92s

Root relaxation: objective -3.804889e+02, 101353 iterations, 59.80 seconds
Total elapsed time = 135.90s
Total elapsed time = 160.25s

    Nodes    |    Current Node    |     Objective Bounds      |     Work
 Expl Unexpl |  Obj  Depth IntInf | Incumbent    BestBd   Gap | It/Node Time

     0     0 -380.48891    0  487 -13463.121 -380.48891  97.2%     -  177s
H    0     0                    -402.8656221 -380.48891  5.55%     -  191s
     0     0 -383.61124    0  475 -402.86562 -383.61124  4.78%     -  234s
     0     0 -383.74864    0  476 -402.86562 -383.74864  4.75%     -  270s
     0     0 -383.95816    0  470 -402.86562 -383.95816  4.69%     -  285s
     0     0 -383.98838    0  477 -402.86562 -383.98838  4.69%     -  295s
     0     0 -384.00667    0  526 -402.86562 -384.00667  4.68%     -  305s
     0     0 -384.01324    0  526 -402.86562 -384.01324  4.68%     -  313s
     0     0 -384.01907    0  526 -402.86562 -384.01907  4.68%     -  321s
     0     0 -384.02910    0  526 -402.86562 -384.02910  4.68%     -  329s
     0     0 -384.59756    0  551 -402.86562 -384.59756  4.53%     -  349s
     0     0 -384.75068    0  445 -402.86562 -384.75068  4.50%     -  376s
     0     0 -385.14984    0  476 -402.86562 -385.14984  4.40%     -  400s
     0     0 -385.23916    0  494 -402.86562 -385.23916  4.38%     -  414s
     0     0 -385.25675    0  486 -402.86562 -385.25675  4.37%     -  427s
     0     0 -385.26070    0  499 -402.86562 -385.26070  4.37%     -  435s
     0     0 -385.28698    0  491 -402.86562 -385.28698  4.36%     -  447s
     0     0 -385.29289    0  492 -402.86562 -385.29289  4.36%     -  457s
     0     0 -386.72449    0  515 -402.86562 -386.72449  4.01%     -  510s
     0     0 -386.72788    0  478 -402.86562 -386.72788  4.01%     -  530s
     0     0 -386.73357    0  419 -402.86562 -386.73357  4.00%     -  539s
     0     0 -386.73357    0  424 -402.86562 -386.73357  4.00%     -  543s
     0     0 -387.25396    0  458 -402.86562 -387.25396  3.88%     -  562s
     0     0 -387.25396    0  454 -402.86562 -387.25396  3.88%     -  578s
     0     0 -387.94781    0  387 -402.86562 -387.94781  3.70%     -  599s
     0     0 -387.98643    0  464 -402.86562 -387.98643  3.69%     -  621s
     0     0 -387.98976    0  479 -402.86562 -387.98976  3.69%     -  632s
     0     0 -388.00450    0  456 -402.86562 -388.00450  3.69%     -  643s
     0     0 -388.00452    0  483 -402.86562 -388.00452  3.69%     -  651s
     0     0 -388.07757    0  502 -402.86562 -388.07757  3.67%     -  667s
     0     0 -388.07757    0  501 -402.86562 -388.07757  3.67%     -  685s
     0     0 -388.79545    0  468 -402.86562 -388.79545  3.49%     -  714s
     0     0 -388.95798    0  487 -402.86562 -388.95798  3.45%     -  744s
     0     0 -388.96308    0  488 -402.86562 -388.96308  3.45%     -  755s
     0     0 -388.98159    0  490 -402.86562 -388.98159  3.45%     -  769s
     0     0 -388.98239    0  492 -402.86562 -388.98239  3.45%     -  778s
     0     0 -389.59571    0  442 -402.86562 -389.59571  3.29%     -  797s
     0     0 -389.81254    0  447 -402.86562 -389.81254  3.24%     -  822s
     0     0 -389.89060    0  447 -402.86562 -389.89060  3.22%     -  832s
     0     0 -389.89060    0  447 -402.86562 -389.89060  3.22%     -  838s
     0     0 -390.59932    0  443 -402.86562 -390.59932  3.04%     -  872s
     0     0 -390.59932    0  433 -402.86562 -390.59932  3.04%     -  889s
     0     0 -390.72322    0  446 -402.86562 -390.72322  3.01%     -  904s
     0     0 -390.74056    0  450 -402.86562 -390.74056  3.01%     -  924s
     0     0 -390.74056    0  450 -402.86562 -390.74056  3.01%     -  931s
     0     0 -391.24361    0  406 -402.86562 -391.24361  2.88%     -  954s
     0     0 -391.24361    0  407 -402.86562 -391.24361  2.88%     -  969s
     0     0 -391.54717    0  405 -402.86562 -391.54717  2.81%     -  990s
     0     0 -391.65725    0  406 -402.86562 -391.65725  2.78%     - 1011s
     0     0 -391.65725    0  408 -402.86562 -391.65725  2.78%     - 1019s
     0     0 -391.93746    0  411 -402.86562 -391.93746  2.71%     - 1037s
     0     0 -391.93746    0  413 -402.86562 -391.93746  2.71%     - 1051s
     0     0 -391.93746    0  400 -402.86562 -391.93746  2.71%     - 1066s
     0     0 -392.19765    0  413 -402.86562 -392.19765  2.65%     - 1089s
     0     0 -392.23235    0  418 -402.86562 -392.23235  2.64%     - 1102s
     0     0 -392.23482    0  419 -402.86562 -392.23482  2.64%     - 1115s
     0     0 -392.23482    0  419 -402.86562 -392.23482  2.64%     - 1124s
     0     0 -393.06497    0  362 -402.86562 -393.06497  2.43%     - 1330s
     0     0 -393.23843    0  369 -402.86562 -393.23843  2.39%     - 1365s
     0     0 -393.28180    0  375 -402.86562 -393.28180  2.38%     - 1384s
     0     0 -393.29659    0  377 -402.86562 -393.29659  2.38%     - 1398s
     0     0 -393.29659    0  378 -402.86562 -393.29659  2.38%     - 1408s
     0     0 -394.00275    0  367 -402.86562 -394.00275  2.20%     - 1457s
     0     0 -394.08774    0  396 -402.86562 -394.08774  2.18%     - 1481s
     0     0 -394.08774    0  398 -402.86562 -394.08774  2.18%     - 1490s
     0     0 -394.70498    0  391 -402.86562 -394.70498  2.03%     - 1512s
     0     0 -394.91111    0  391 -402.86562 -394.91111  1.97%     - 1542s
     0     0 -395.15065    0  390 -402.86562 -395.15065  1.92%     - 1556s
     0     0 -395.17543    0  390 -402.86562 -395.17543  1.91%     - 1567s
     0     0 -395.17543    0  391 -402.86562 -395.17543  1.91%     - 1575s
     0     0 -395.20171    0  395 -402.86562 -395.20171  1.90%     - 1590s
     0     0 -395.21026    0  402 -402.86562 -395.21026  1.90%     - 1607s
     0     0 -395.23325    0  406 -402.86562 -395.23325  1.89%     - 1617s
     0     0 -395.23325    0  404 -402.86562 -395.23325  1.89%     - 1625s
     0     0 -395.31999    0  385 -402.86562 -395.31999  1.87%     - 1642s
     0     0 -395.45008    0  383 -402.86562 -395.45008  1.84%     - 1665s
     0     0 -395.47374    0  398 -402.86562 -395.47374  1.83%     - 1676s
     0     0 -395.48725    0  397 -402.86562 -395.48725  1.83%     - 1687s
     0     0 -395.48725    0  402 -402.86562 -395.48725  1.83%     - 1696s
     0     0 -395.66691    0  389 -402.86562 -395.66691  1.79%     - 1713s
     0     0 -395.71028    0  386 -402.86562 -395.71028  1.78%     - 1731s
     0     0 -395.75798    0  395 -402.86562 -395.75798  1.76%     - 1742s
     0     0 -395.76752    0  398 -402.86562 -395.76752  1.76%     - 1753s
     0     0 -395.77152    0  400 -402.86562 -395.77152  1.76%     - 1763s
     0     0 -395.77152    0  400 -402.86562 -395.77152  1.76%     - 1770s
     0     0 -396.10057    0  383 -402.86562 -396.10057  1.68%     - 1784s
     0     0 -396.28080    0  405 -402.86562 -396.28080  1.63%     - 1805s
     0     0 -396.29926    0  408 -402.86562 -396.29926  1.63%     - 1813s
     0     0 -396.32474    0  410 -402.86562 -396.32474  1.62%     - 1824s
     0     0 -396.32474    0  411 -402.86562 -396.32474  1.62%     - 1832s
     0     0 -397.11322    0  407 -402.86562 -397.11322  1.43%     - 1853s
     0     0 -397.16737    0  401 -402.86562 -397.16737  1.41%     - 1870s
     0     0 -397.23473    0  402 -402.86562 -397.23473  1.40%     - 1882s
     0     0 -397.23726    0  409 -402.86562 -397.23726  1.40%     - 1892s
     0     0 -397.23726    0  410 -402.86562 -397.23726  1.40%     - 1900s
     0     0 -397.46888    0  396 -402.86562 -397.46888  1.34%     - 1918s
     0     0 -397.54764    0  403 -402.86562 -397.54764  1.32%     - 1939s
     0     0 -397.56326    0  411 -402.86562 -397.56326  1.32%     - 1951s
     0     0 -397.56326    0  413 -402.86562 -397.56326  1.32%     - 1961s
     0     0 -397.66119    0  406 -402.86562 -397.66119  1.29%     - 1978s
     0     0 -397.68039    0  411 -402.86562 -397.68039  1.29%     - 1994s
     0     0 -397.69595    0  412 -402.86562 -397.69595  1.28%     - 2002s
     0     0 -397.69691    0  413 -402.86562 -397.69691  1.28%     - 2010s
     0     0 -397.96596    0  402 -402.86562 -397.96596  1.22%     - 2025s
     0     0 -398.01588    0  402 -402.86562 -398.01588  1.20%     - 2040s
     0     0 -398.03641    0  405 -402.86562 -398.03641  1.20%     - 2050s
     0     0 -398.03788    0  405 -402.86562 -398.03788  1.20%     - 2058s
     0     0 -398.20060    0  406 -402.86562 -398.20060  1.16%     - 2074s
     0     0 -398.37067    0  408 -402.86562 -398.37067  1.12%     - 2087s
     0     0 -398.40651    0  412 -402.86562 -398.40651  1.11%     - 2096s
     0     0 -398.40823    0  411 -402.86562 -398.40823  1.11%     - 2103s
     0     0 -398.46892    0  407 -402.86562 -398.46892  1.09%     - 2116s
     0     0 -398.54986    0  400 -402.86562 -398.54986  1.07%     - 2130s
     0     0 -398.54986    0  409 -402.86562 -398.54986  1.07%     - 2137s
     0     0 -398.54986    0  411 -402.86562 -398.54986  1.07%     - 2148s
     0     0 -398.56665    0  410 -402.86562 -398.56665  1.07%     - 2161s
     0     0 -398.56845    0  413 -402.86562 -398.56845  1.07%     - 2167s
     0     0 -398.64797    0  406 -402.86562 -398.64797  1.05%     - 2179s
     0     0 -398.67476    0  410 -402.86562 -398.67476  1.04%     - 2195s
     0     0 -398.69342    0  411 -402.86562 -398.69342  1.04%     - 2204s
     0     0 -398.69557    0  415 -402.86562 -398.69557  1.04%     - 2212s
     0     0 -398.69557    0  416 -402.86562 -398.69557  1.04%     - 2218s
     0     0 -398.69776    0  416 -402.86562 -398.69776  1.03%     - 2230s
     0     0 -398.69907    0  417 -402.86562 -398.69907  1.03%     - 2245s
     0     0 -398.69907    0  417 -402.86562 -398.69907  1.03%     - 2258s
     0     0 -398.69907    0  417 -402.86562 -398.69907  1.03%     - 2272s
     0     0 -398.69907    0  408 -402.86562 -398.69907  1.03%     - 2345s
     0     0 -398.69907    0  407 -402.86562 -398.69907  1.03%     - 2376s
     0     2 -398.69907    0  407 -402.86562 -398.69907  1.03%     - 2512s
     1     3 -399.59064    1  296 -402.86562 -398.69907  1.03%  1066 2520s
     5     5     cutoff    4      -402.86562 -398.69907  1.03%   261 2527s
     6     6 -400.63142    5  327 -402.86562 -398.69907  1.03%   239 2531s
     7     5     cutoff    5      -402.86562 -398.69907  1.03%   311 2537s
     9     7 -401.15181    7  304 -402.86562 -398.69907  1.03%   268 2541s
    11     9 -402.34523    8  122 -402.86562 -398.69907  1.03%   246 2548s
    13     7     cutoff    9      -402.86562 -398.69907  1.03%   234 2552s
    15     7 -398.86210    1  391 -402.86562 -398.86210  0.99%   224 2559s
    16     8 -398.92534    2  401 -402.86562 -398.86210  0.99%   226 2565s
    17     9 -400.11103    3  315 -402.86562 -398.86210  0.99%   264 2574s
    18    10 -400.45796    4  324 -402.86562 -398.86210  0.99%   259 2578s
    19     9     cutoff    4      -402.86562 -398.86210  0.99%   324 2592s
    20    10 -400.63142    5  300 -402.86562 -398.86210  0.99%   311 2595s
    22    10 -401.15181    6  300 -402.86562 -398.86210  0.99%   343 2608s
    23    11 -402.71297    6  238 -402.86562 -398.86210  0.99%   357 2619s
    26    10 -401.49873    7  300 -402.86562 -398.86210  0.99%   324 2623s
    27    11 -401.82484    8  298 -402.86562 -398.86210  0.99%   332 2630s
    28    10     cutoff    8      -402.86562 -398.86210  0.99%   339 2636s
    29    11 -402.02309    9  297 -402.86562 -398.86210  0.99%   338 2640s
    30    12 -402.30187   10  293 -402.86562 -398.86210  0.99%   339 2646s
    31    11     cutoff   10      -402.86562 -398.86210  0.99%   346 2651s
    34    10     cutoff   12      -402.86562 -398.86210  0.99%   326 2655s
    36     8     cutoff    2      -402.86562 -398.92534  0.98%   333 2670s
    37     9 -399.05146    3  405 -402.86562 -399.05146  0.95%   338 2676s
    38    10 -399.40097    4  409 -402.86562 -399.05146  0.95%   341 2684s
    39    11 -402.19259    4  332 -402.86562 -399.40976  0.86%   425 2711s
    41    13 -402.01912    5  326 -402.86562 -399.59064  0.81%   426 2726s
    43    15 -402.71297    7  254 -402.86562 -399.59064  0.81%   411 2731s
    47    11     cutoff    6      -402.86562 -399.59064  0.81%   383 2735s
    49    11 -401.15181    2  212 -402.86562 -399.73780  0.78%   400 2749s
    51    13 -401.47792    4  197 -402.86562 -399.73780  0.78%   395 2756s
    52    12     cutoff    4      -402.86562 -399.73780  0.78%   397 2762s
    53    11     cutoff    5      -402.86562 -399.73780  0.78%   397 2767s
    54    12 -401.62470    5  178 -402.86562 -399.73780  0.78%   393 2770s
    55    11     cutoff    6      -402.86562 -399.73780  0.78%   390 2775s
    57    11     cutoff    7      -402.86562 -399.73780  0.78%   388 2784s
    58    10     cutoff    7      -402.86562 -399.73780  0.78%   389 2788s
    59    11 -399.87975    6  403 -402.86562 -399.75120  0.77%   385 2793s
    60    12 -400.22142    7  409 -402.86562 -399.75120  0.77%   386 2802s
    61    13 -401.41200    8  390 -402.86562 -399.75120  0.77%   391 2816s
    62    14 -401.54210    9  379 -402.86562 -399.75120  0.77%   387 2820s
    64    16 -402.50482   11  335 -402.86562 -399.75120  0.77%   378 2825s
    67    15     cutoff   13      -402.86562 -399.75120  0.77%   365 2830s
    71    11     cutoff    9      -402.86562 -399.75120  0.77%   349 2836s
    72    12 -400.63142    8  384 -402.86562 -399.75120  0.77%   354 2843s
    73    13 -401.15181    9  397 -402.86562 -399.75120  0.77%   354 2850s
    74    13 -402.71297   10  290 -402.86562 -399.75120  0.77%   354 2858s
    76    13 -401.15181   10  381 -402.86562 -399.75120  0.77%   346 2860s
    78    15 -401.67220   12  369 -402.86562 -399.75120  0.77%   342 2868s
    79    16 -402.19259   13  364 -402.86562 -399.75120  0.77%   341 2872s
    81    16 -402.19259   14  369 -402.86562 -399.75120  0.77%   333 2876s
    82    17 -402.60890   15  386 -402.86562 -399.75120  0.77%   335 2882s
    85    18 -402.71297   17  359 -402.86562 -399.75120  0.77%   325 2885s
    93    14     cutoff   15      -402.86562 -399.75120  0.77%   301 2890s
    94    13     cutoff    6      -402.86562 -399.89516  0.74%   332 2912s
    95    12     cutoff    7      -402.86562 -400.63142  0.55%   331 2916s
    96    13 -402.19259    6  201 -402.86562 -400.63142  0.55%   330 2920s
    98    15 -402.66547    8  180 -402.86562 -400.63142  0.55%   328 2927s
   100    13     cutoff    9      -402.86562 -400.63142  0.55%   325 2930s
   102    11     cutoff    7      -402.86562 -400.63142  0.55%   322 2935s
   104     9     cutoff    8      -402.86562 -401.15181  0.43%   319 2940s
   105    10 -401.67220    8  294 -402.86562 -401.15181  0.43%   320 2946s
   107    10     cutoff   10      -402.86562 -401.15181  0.43%   317 2952s
   109    10     cutoff    9      -402.86562 -401.15181  0.43%   314 2957s
   111    10 -402.51870   11  290 -402.86562 -401.15181  0.43%   314 2964s
   112    11 -402.66547   12  284 -402.86562 -401.15181  0.43%   313 2969s
   113    10     cutoff   13      -402.86562 -401.15181  0.43%   311 2970s
   116     9 -401.15181    3  201 -402.86562 -401.15181  0.43%   307 2976s
   117     8     cutoff    4      -402.86562 -401.15181  0.43%   332 3010s
   118     9 -401.47792    4  197 -402.86562 -401.15181  0.43%   334 3019s
   119    10 -401.62470    5  180 -402.86562 -401.15181  0.43%   334 3024s
   120    11 -401.95100    6  165 -402.86562 -401.15181  0.43%   334 3030s
   122    11 -402.22959    7  181 -402.86562 -401.15181  0.43%   331 3037s
   123    10     cutoff    8      -402.86562 -401.15181  0.43%   330 3040s
   125    10     cutoff    9      -402.86562 -401.15181  0.43%   328 3047s
   126     9     cutoff    9      -402.86562 -401.15181  0.43%   327 3050s
   128     7     cutoff   12      -402.86562 -401.15386  0.42%   326 3057s
   129     6     cutoff    7      -402.86562 -401.47792  0.34%   326 3060s
   130     5     cutoff    5      -402.86562 -401.64271  0.30%   327 3066s
   131     4     cutoff    6      -402.86562 -401.71564  0.29%   328 3072s
   133     2     cutoff    9      -402.86562 -402.19259  0.17%   329 3078s
   134     1     cutoff    5      -402.86562 -402.19259  0.17%   327 3081s
   135     2 -402.71401    5  324 -402.86562 -402.71401  0.04%   326 3085s

Cutting planes:
  Gomory: 9
  Zero half: 311

Explored 138 nodes (218209 simplex iterations) in 3088.97 seconds
Thread count was 1 (of 80 available processors)

Solution count 2: -402.866 -13463.1 

Optimal solution found (tolerance 1.00e-04)
Best objective -4.028656220760e+02, best bound -4.028656220760e+02, gap 0.0000%
